Data path: /scratch/opt/lxu/CFLG/benchmarks/random_B
Instance: r_30_0.3_131.txt
Result path: /scratch/opt/lxu/CFLG/results/random_B
Solver: Gurobi
Time limit: 3600
Formulation: LEFPV2
Cover: Large
julia --project=. src/main.jl /scratch/opt/lxu/CFLG/benchmarks/random_B r_30_0.3_131.txt /scratch/opt/lxu/CFLG/results/random_B Gurobi 3600 LEFPV2 Large
The latest version of Julia in the `release` channel is 1.11.5+0.x64.linux.gnu. You currently have `1.11.4+0.x64.linux.gnu` installed. Run:

  juliaup update

in your terminal shell to install Julia 1.11.5+0.x64.linux.gnu and update the `release` channel to that version.
/scratch/opt/lxu/CFLG/benchmarks/random_B Gurobi 3600.0 /scratch/opt/lxu/CFLG/results/random_B r_30_0.3_131.txt LEFPV2 Large
/scratch/opt/lxu/CFLG/benchmarks/random_B/r_30_0.3_131.txt

 read graph
data loaded

problem_graph/original graph: node: 30/30 edge: 131/131 dlt: 1.2087766436331486 break_avg_len: 0.6043883218165743 break_max_len: 0.996803218117645Set parameter TokenServer to value "solice01.zib.de"
Set parameter Threads to value 1
Set parameter OutputFlag to value 1
Gurobi Optimizer version 12.0.1 build v12.0.1rc0 (linux64 - "Debian GNU/Linux 12 (bookworm)")

CPU model: Intel(R) Xeon(R) Gold 5122 CPU @ 3.60GHz, instruction set [SSE2|AVX|AVX2|AVX512]
Thread count: 8 physical cores, 16 logical processors, using up to 1 threads

Non-default parameters:
Threads  1

Optimize a model with 161 rows, 393 columns and 655 nonzeros
Model fingerprint: 0xc1992c8f
Coefficient statistics:
  Matrix range     [1e+00, 1e+00]
  Objective range  [1e+00, 1e+00]
  Bounds range     [1e+00, 1e+00]
  RHS range        [0e+00, 0e+00]
Presolve removed 161 rows and 393 columns
Presolve time: 0.00s
Presolve: All rows and columns removed
Iteration    Objective       Primal Inf.    Dual Inf.      Time
       0   -0.0000000e+00   0.000000e+00   0.000000e+00      0s

Solved in 0 iterations and 0.00 seconds (0.00 work units)
Optimal objective -0.000000000e+00

User-callback calls 35, time in user-callback 0.00 sec
elapsed CPU time: 0.954905 seconds
Set parameter TokenServer to value "solice01.zib.de"
Set parameter Threads to value 1
Set parameter OutputFlag to value 1
Set parameter MIPGap to value 0.0001
Set parameter MIPGapAbs to value 1
Set parameter TimeLimit to value 3599.045095

 more cuts:truefalse
0 0
formulation:LEFPV20 131 30
Set parameter PreCrush to value 1

 model loaded

Gurobi Optimizer version 12.0.1 build v12.0.1rc0 (linux64 - "Debian GNU/Linux 12 (bookworm)")

CPU model: Intel(R) Xeon(R) Gold 5122 CPU @ 3.60GHz, instruction set [SSE2|AVX|AVX2|AVX512]
Thread count: 8 physical cores, 16 logical processors, using up to 1 threads

Non-default parameters:
TimeLimit  3599.045095
MIPGapAbs  1
PreCrush  1
Threads  1

Optimize a model with 15954 rows, 7698 columns and 47581 nonzeros
Model fingerprint: 0x3e96d703
Variable types: 292 continuous, 7406 integer (7406 binary)
Coefficient statistics:
  Matrix range     [1e-06, 2e+00]
  Objective range  [1e+00, 1e+00]
  Bounds range     [3e-01, 1e+00]
  RHS range        [3e-01, 1e+01]
Found heuristic solution: objective 23.0000000
Presolve removed 3496 rows and 180 columns
Presolve time: 0.13s
Presolved: 12458 rows, 7518 columns, 43688 nonzeros
Variable types: 161 continuous, 7357 integer (7357 binary)

Root relaxation: objective 4.699435e-01, 4819 iterations, 0.30 seconds (0.65 work units)

    Nodes    |    Current Node    |     Objective Bounds      |     Work
 Expl Unexpl |  Obj  Depth IntInf | Incumbent    BestBd   Gap | It/Node Time

     0     0    0.46994    0  459   23.00000    0.46994  98.0%     -    0s
H    0     0                       9.0000000    0.46994  94.8%     -    0s
H    0     0                       8.0000000    0.46994  94.1%     -    0s
H    0     0                       7.0000000    0.46994  93.3%     -    0s
H    0     0                       5.0000000    0.46994  90.6%     -    0s
H    0     0                       4.0000000    0.46994  88.3%     -    0s
H    0     0                       3.0000000    0.46994  84.3%     -    1s
     0     0    0.82915    0  449    3.00000    0.82915  72.4%     -    1s
     0     0    0.86028    0  432    3.00000    0.86028  71.3%     -    2s
     0     0    0.86028    0  431    3.00000    0.86028  71.3%     -    2s
     0     0    1.00000    0  346    3.00000    1.00000  66.7%     -    2s
     0     0    1.00000    0  257    3.00000    1.00000  66.7%     -    3s
     0     0    1.00000    0  194    3.00000    1.00000  66.7%     -    3s
     0     0    1.00000    0  276    3.00000    1.00000  66.7%     -    3s
     0     0    1.00000    0  195    3.00000    1.00000  66.7%     -    4s
     0     0    1.00000    0  395    3.00000    1.00000  66.7%     -    4s
     0     0    1.00000    0  278    3.00000    1.00000  66.7%     -    5s
     0     0    1.00000    0  278    3.00000    1.00000  66.7%     -    6s
     0     2    1.00000    0  278    3.00000    1.00000  66.7%     -    7s
    78    78    1.39695   70  173    3.00000    1.00000  66.7%   320   11s
   191   149    2.00000   11  122    3.00000    1.00000  66.7%   222   15s
   577   349    1.73255   26  120    3.00000    1.15149  61.6%   170   20s
   723   410    1.30575   11  278    3.00000    1.17331  60.9%   157   33s
   725   411    1.17743   22  315    3.00000    1.17331  60.9%   156   36s
   727   413    2.00000   43  374    3.00000    1.17331  60.9%   156   40s
   734   417    2.00000   33  435    3.00000    1.17331  60.9%   154   45s
   737   419    2.00000   32  603    3.00000    1.17331  60.9%   154   50s
   741   422    2.00000   51  759    3.00000    1.17331  60.9%   153   55s
   761   436    1.17331   22  466    3.00000    1.17331  60.9%   289   60s
   810   463    2.00000   46  311    3.00000    1.17606  60.8%   328   65s
   864   496    2.00000   73  315    3.00000    1.43872  52.0%   349   70s
   998   487     cutoff   35         3.00000    1.51404  49.5%   347   75s
  1131   444     cutoff   36         3.00000    1.56404  47.9%   333   80s
  1303   406    1.77874   53  165    3.00000    1.62790  45.7%   313   85s
  1448   390    2.00000   51   94    3.00000    1.65251  44.9%   303   90s
  1587   390    2.00000   58  111    3.00000    1.68292  43.9%   293   96s
  1708   374    2.00000   61  110    3.00000    1.70334  43.2%   285  100s
  1869   349    2.00000   38   99    3.00000    1.74855  41.7%   275  105s
  2021   305    2.00000   62  153    3.00000    1.84963  38.3%   270  110s

Cutting planes:
  Learned: 4
  Gomory: 1
  Cover: 14
  Projected implied bound: 41
  MIR: 22
  Mixing: 1
  StrongCG: 11
  Flow cover: 41
  GUB cover: 41
  Zero half: 4
  RLT: 2
  Relax-and-lift: 84

Explored 2142 nodes (618632 simplex iterations) in 113.46 seconds (151.06 work units)
Thread count was 1 (of 16 available processors)

Solution count 10: 3 3 4 ... 23

Optimal solution found (tolerance 1.00e-04)
Best objective 3.000000000000e+00, best bound 2.000000000000e+00, gap 33.3333%

User-callback calls 35423, time in user-callback 0.67 sec

 sepatime0
3.0Stat(MathOptInterface.OPTIMAL, 3.0, 2.0000000000000004, 0.3333333333333332, 0.0, 0.954905, 113.45736193656921, 2142, Main.CFLG.LEFPV2, "", #undef)
